RT is False
Default write of storage_offers_DA.csv just to have a file (but constraint should be inactive)
Reading model...
...model read.
creating competitive generators file...
...competitive generators recorded.
Loading data...
.. day-ahead data with real-time VRE data read.
Compiling instance...
...instance created.
Creating Offer Mitigation (model will solve as dispatch if TRUE)...
Solving...

Welcome to IBM(R) ILOG(R) CPLEX(R) Interactive Optimizer 12.9.0.0
  with Simplex, Mixed Integer & Barrier Optimizers
5725-A06 5725-A29 5724-Y48 5724-Y49 5724-Y54 5724-Y55 5655-Y21
Copyright IBM Corp. 1988, 2019.  All Rights Reserved.

Type 'help' for a list of available commands.
Type 'help' followed by a command name for more
information on commands.

CPLEX> Logfile 'cplex.log' closed.
Logfile 'C:\Users\llavin\Desktop\test919\logs\tmpi9sma680.cplex.log' open.
CPLEX> New value for parallel optimization mode: -1
CPLEX> New value for mixed integer optimality gap tolerance: 0.01
CPLEX> New value for integrality tolerance: 1e-09
CPLEX> New value for feasibility tolerance: 0.01
CPLEX> New value for deterministic time limit in ticks: 75000
CPLEX> Problem 'C:\Users\llavin\Desktop\test919\logs\tmpfx5f5iet.pyomo.lp' read.
Read time = 0.05 sec. (3.04 ticks)
CPLEX> Problem name         : C:\Users\llavin\Desktop\test919\logs\tmpfx5f5iet.pyomo.lp
Objective sense      : Minimize
Variables            :   26081  [Nneg: 1,  Box: 21616,  Free: 4464]
Objective nonzeros   :    2496
Linear constraints   :   27515  [Less: 14006,  Greater: 4416,  Equal: 9093]
  Nonzeros           :   89219
  RHS nonzeros       :   12275

Variables            : Min LB: -5000.000        Max UB: 1000000.       
Objective nonzeros   : Min   : 15.73158         Max   : 124.0997       
Linear constraints   :
  Nonzeros           : Min   : 0.8500000        Max   : 3000.000       
  RHS nonzeros       : Min   : 0.04166667       Max   : 5000.000       
CPLEX> CPXPARAM_Parallel                                -1
CPXPARAM_Simplex_Tolerances_Feasibility          0.01
CPXPARAM_DetTimeLimit                            75000
CPXPARAM_MIP_Tolerances_MIPGap                   0.01
CPXPARAM_MIP_Tolerances_Integrality              1.0000000000000001e-09
Parallel mode: opportunistic, using up to 32 threads for concurrent optimization.
Tried aggregator 1 time.
LP Presolve eliminated 21377 rows and 15485 columns.
Aggregator did 744 substitutions.
Reduced LP has 5394 rows, 9852 columns, and 31799 nonzeros.
Presolve time = 0.06 sec. (30.22 ticks)
Symmetry aggregator did 5565 additional substitutions.

Iteration log . . .
Iteration:     1   Dual objective     =             0.000000
Perturbation started.
Iteration:   101   Dual objective     =             0.000000
Iteration:   339   Dual objective     =             1.326469
Iteration:   589   Dual objective     =             1.877420
Iteration:   851   Dual objective     =             2.015795
Iteration:  1072   Dual objective     =             2.134120
Iteration:  1352   Dual objective     =             2.176622
Iteration:  1603   Dual objective     =             2.205704
Iteration:  1826   Dual objective     =             2.227194
Iteration:  2036   Dual objective     =             2.247010
Iteration:  2239   Dual objective     =             2.259629
Iteration:  2503   Dual objective     =             2.272505
Iteration:  2960   Dual objective     =          1675.337315
Removing perturbation.

Dual crossover.
  Dual:  Fixing 1 variable.
Using devex.

Primal simplex solved model.


Primal simplex - Optimal:  Objective =  1.6730577958e+03
Solution time =    0.17 sec.  Iterations = 1553 (1165)
Deterministic time = 80.05 ticks  (465.38 ticks/sec)

CPLEX> Solution written to file 'C:\Users\llavin\Desktop\test919\logs\tmpksubwsid.cplex.sol'.
CPLEX> Exporting results... 
...storage offer mitigation file created
Converting model to MPEC...
...converted
NOTE: initial MIP solve with only storage competitive to get feasible solution
Solving...

Welcome to IBM(R) ILOG(R) CPLEX(R) Interactive Optimizer 12.9.0.0
  with Simplex, Mixed Integer & Barrier Optimizers
5725-A06 5725-A29 5724-Y48 5724-Y49 5724-Y54 5724-Y55 5655-Y21
Copyright IBM Corp. 1988, 2019.  All Rights Reserved.

Type 'help' for a list of available commands.
Type 'help' followed by a command name for more
information on commands.

CPLEX> Logfile 'cplex.log' closed.
Logfile 'C:\Users\llavin\Desktop\test919\logs\tmpemm_by2q.cplex.log' open.
CPLEX> New value for parallel optimization mode: -1
CPLEX> New value for mixed integer optimality gap tolerance: 0.01
CPLEX> New value for integrality tolerance: 1e-09
CPLEX> New value for feasibility tolerance: 0.01
CPLEX> New value for deterministic time limit in ticks: 75000
CPLEX> Problem 'C:\Users\llavin\Desktop\test919\logs\tmpmblr83r7.pyomo.lp' read.
Read time = 0.25 sec. (14.78 ticks)
CPLEX> Problem name         : C:\Users\llavin\Desktop\test919\logs\tmpmblr83r7.pyomo.lp
Objective sense      : Maximize
Variables            :   53805  [Nneg: 1,  Box: 22000,  Free: 4464,
                                 Binary: 27340]
Objective nonzeros   :    9033
Linear constraints   :  123205  [Less: 41346,  Greater: 59096,  Equal: 22763]
  Nonzeros           :  291757
  RHS nonzeros       :   67401

Variables            : Min LB: -5000.000        Max UB: 1000000.       
Objective nonzeros   : Min   : 0.04166667       Max   : 2500.000       
Linear constraints   :
  Nonzeros           : Min   : 0.04166667       Max   : 1000000.       
  RHS nonzeros       : Min   : 0.04166667       Max   : 1000000.       
CPLEX> CPXPARAM_Parallel                                -1
CPXPARAM_Simplex_Tolerances_Feasibility          0.01
CPXPARAM_DetTimeLimit                            75000
CPXPARAM_MIP_Tolerances_MIPGap                   0.01
CPXPARAM_MIP_Tolerances_Integrality              1.0000000000000001e-09
Tried aggregator 3 times.
MIP Presolve eliminated 88627 rows and 18955 columns.
MIP Presolve added 3384 rows and 0 columns.
MIP Presolve modified 24871 coefficients.
Aggregator did 13004 substitutions.
Reduced MIP has 24958 rows, 21294 columns, and 71177 nonzeros.
Reduced MIP has 8422 binaries, 0 generals, 0 SOSs, and 0 indicators.
Presolve time = 0.30 sec. (173.80 ticks)
Probing fixed 386 vars, tightened 2856 bounds.
Probing time = 1.22 sec. (879.60 ticks)
Tried aggregator 2 times.
MIP Presolve eliminated 872 rows and 773 columns.
MIP Presolve modified 2217 coefficients.
Aggregator did 35 substitutions.
Reduced MIP has 24051 rows, 20486 columns, and 68550 nonzeros.
Reduced MIP has 8036 binaries, 0 generals, 0 SOSs, and 0 indicators.
Presolve time = 0.13 sec. (69.16 ticks)
Probing time = 0.05 sec. (16.02 ticks)
Clique table members: 6352.
MIP emphasis: balance optimality and feasibility.
MIP search method: dynamic search.
Parallel mode: opportunistic, using up to 32 threads.
Root relaxation solution time = 0.42 sec. (504.85 ticks)

        Nodes                                         Cuts/
   Node  Left     Objective  IInf  Best Integer    Best Bound    ItCnt     Gap

      0     0        0.0000   656                      0.0000     6029         
*     0+    0                            0.0000        0.0000             0.00%
      0     0        cutoff              0.0000        0.0000     6029    0.00%
Elapsed time = 3.77 sec. (2738.15 ticks, tree = 0.01 MB, solutions = 1)

Root node processing (before b&c):
  Real time             =    3.78 sec. (2739.98 ticks)
Parallel b&c, 32 threads:
  Real time             =    0.00 sec. (0.00 ticks)
  Sync time (average)   =    0.00 sec.
  Wait time (average)   =    0.00 sec.
                          ------------
Total (root+branch&cut) =    3.78 sec. (2739.98 ticks)

Solution pool: 1 solution saved.

MIP - Integer optimal solution:  Objective =  1.4733814169e-10
Solution time =    3.80 sec.  Iterations = 6029  Nodes = 0
Deterministic time = 2740.13 ticks  (721.85 ticks/sec)

CPLEX> Incumbent solution written to file 'C:\Users\llavin\Desktop\test919\logs\tmpsvy5jora.cplex.sol'.
CPLEX> NOTE: no warmstart specified for MIP iteration, default behavior is true
NOTE: resolving with all competitive generators using storage-only solution to warmstart
Solving...

Welcome to IBM(R) ILOG(R) CPLEX(R) Interactive Optimizer 12.9.0.0
  with Simplex, Mixed Integer & Barrier Optimizers
5725-A06 5725-A29 5724-Y48 5724-Y49 5724-Y54 5724-Y55 5655-Y21
Copyright IBM Corp. 1988, 2019.  All Rights Reserved.

Type 'help' for a list of available commands.
Type 'help' followed by a command name for more
information on commands.

CPLEX> Logfile 'cplex.log' closed.
Logfile 'C:\Users\llavin\Desktop\test919\logs\tmpmzxfv2lo.cplex.log' open.
CPLEX> New value for parallel optimization mode: -1
CPLEX> New value for mixed integer optimality gap tolerance: 0.01
CPLEX> New value for integrality tolerance: 1e-09
CPLEX> New value for feasibility tolerance: 0.01
CPLEX> New value for deterministic time limit in ticks: 75000
CPLEX> Problem 'C:\Users\llavin\Desktop\test919\logs\tmpplwmsnbt.pyomo.lp' read.
Read time = 0.25 sec. (14.81 ticks)
CPLEX> MIP start file 'C:\Users\llavin\Desktop\test919\logs\tmpm7nzu6tv.cplex.mst' read.
CPLEX> Problem name         : C:\Users\llavin\Desktop\test919\logs\tmpplwmsnbt.pyomo.lp
Objective sense      : Maximize
Variables            :   54525  [Nneg: 1,  Box: 22720,  Free: 4464,
                                 Binary: 27340]
Objective nonzeros   :    9729
Linear constraints   :  123205  [Less: 41346,  Greater: 59096,  Equal: 22763]
  Nonzeros           :  291757
  RHS nonzeros       :   67401

Variables            : Min LB: -5000.000        Max UB: 1000000.       
Objective nonzeros   : Min   : 0.04166667       Max   : 2500.000       
Linear constraints   :
  Nonzeros           : Min   : 0.04166667       Max   : 1000000.       
  RHS nonzeros       : Min   : 0.04166667       Max   : 1000000.       
CPLEX> CPXPARAM_Parallel                                -1
CPXPARAM_Simplex_Tolerances_Feasibility          0.01
CPXPARAM_DetTimeLimit                            75000
CPXPARAM_MIP_Tolerances_MIPGap                   0.01
CPXPARAM_MIP_Tolerances_Integrality              1.0000000000000001e-09
Warning:  No solution found from 1 MIP starts.
Retaining values of one MIP start for possible repair.
Tried aggregator 3 times.
MIP Presolve eliminated 88627 rows and 19675 columns.
MIP Presolve added 3384 rows and 0 columns.
MIP Presolve modified 24871 coefficients.
Aggregator did 13004 substitutions.
Reduced MIP has 24958 rows, 21294 columns, and 71177 nonzeros.
Reduced MIP has 8422 binaries, 0 generals, 0 SOSs, and 0 indicators.
Presolve time = 0.30 sec. (174.16 ticks)
Probing fixed 386 vars, tightened 2856 bounds.
Probing time = 1.19 sec. (879.60 ticks)
Tried aggregator 2 times.
MIP Presolve eliminated 872 rows and 773 columns.
MIP Presolve modified 2217 coefficients.
Aggregator did 35 substitutions.
Reduced MIP has 24051 rows, 20486 columns, and 68550 nonzeros.
Reduced MIP has 8036 binaries, 0 generals, 0 SOSs, and 0 indicators.
Presolve time = 0.09 sec. (69.16 ticks)
Probing time = 0.05 sec. (16.02 ticks)
Clique table members: 6352.
MIP emphasis: balance optimality and feasibility.
MIP search method: dynamic search.
Parallel mode: opportunistic, using up to 32 threads.
Root relaxation solution time = 0.36 sec. (258.24 ticks)

        Nodes                                         Cuts/
   Node  Left     Objective  IInf  Best Integer    Best Bound    ItCnt     Gap

      0     0    96076.2001  1716                  96076.2001     6021         
      0     0    88132.8122   751                   Cuts: 671     6420         
      0     0    87923.5509   606                   Cuts: 295     6602         
      0     0    87286.3600   551                   Cuts: 112     6686         
      0     0    87286.3600   526                   Cuts: 120     6750         
      0     0    87286.3600   479                    Cuts: 95     6799         
      0     0    87286.3600   467                    Cuts: 54     6828         
      0     0    87286.3600   455                    Cuts: 54     6844         
      0     0    82618.2958   421                    Cuts: 50     7074         
      0     0    82617.3920   412                    Cuts: 96     7115         
      0     0    82617.1840   409                    Cuts: 59     7145         
Repair heuristic found nothing.
      0    17    28563.0821   319                 Impl Bds: 3     7567         
Elapsed time = 13.13 sec. (7066.35 ticks, tree = 0.02 MB, solutions = 0)
    639    86    33148.9237   284                  40834.4657     8094         
   1144   386    22730.1997   260                  40834.4657    12003         
   1644  1134    15342.7121   253                  40834.4657    26400         
   2514  1048    26222.3814   257                  40834.4657    24971         
   3534  1962    26781.2455   210                  40834.4657    31003         
   4603  2646    10220.6539   173                  40834.4657    32530         
   5658  4653    26242.8752   203                  40834.4657    34073         
*  6350+ 4754                        14883.7290    40834.4657           174.36%
   7566  5065    15312.3126   180    26998.7236    40672.8101    34142   50.65%
*  8708  4767      integral     0    27660.7456    40672.8101    34992   47.04%

Clique cuts applied:  3
Cover cuts applied:  8
Implied bound cuts applied:  11
Flow cuts applied:  487
Mixed integer rounding cuts applied:  70
Gomory fractional cuts applied:  38

Root node processing (before b&c):
  Real time             =   10.38 sec. (7028.83 ticks)
Parallel b&c, 32 threads:
  Real time             =   18.45 sec. (4402.59 ticks)
  Sync time (average)   =    1.79 sec.
  Wait time (average)   =    0.00 sec.
                          ------------
Total (root+branch&cut) =   28.83 sec. (11431.43 ticks)

Solution pool: 5 solutions saved.

MIP - Integer optimal solution:  Objective =  2.7660745613e+04
Solution time =   28.83 sec.  Iterations = 46018  Nodes = 8747
Deterministic time = 11431.58 ticks  (396.54 ticks/sec)

CPLEX> Incumbent solution written to file 'C:\Users\llavin\Desktop\test919\logs\tmpyulf6y1n.cplex.sol'.
CPLEX> Exporting results... 
